120 150

47
54
49
42
52
46
49
51
44
44
46
52
50
43
58
60
50
52
48
42
53
56
49
45
51
57
42
40
52
60
60
56
41
53
41
40
49
47
55
60
46
44
43
54
53
47
44
59
55
49
46
51
55
44
54
44
52
40
58
47
49
47
55
40
60
50
40
52
43
55
56
44
50
43
55
52
40
41
40
55
50
45
46
50
54
40
55
56
52
42
48
54
48
40
41
40
53
47
50
41
56
53
44
46
43
48
43
60
46
44
47
47
57
51
42
49
51
55
49
46